; NCL Gate Boolean Function - TH24comp: (AC + BC + AD + BD)
(define-fun th24comp ((a (_ BitVec 1)) (b (_ BitVec 1)) (c (_ BitVec 1)) (d (_ BitVec 1)) (g_l (_ BitVec 1))) (_ BitVec 1)
    (ite
        (=
            (_ bv1 1)
            (bvand
                (bvnot a)
                (bvnot b)
                (bvnot c)
                (bvnot d)))
        (_ bv0 1)
        (ite
            (=
                (_ bv1 1)
                (bvor
                    (bvand a c)
                    (bvand b c)
                    (bvand a d)
                    (bvand b d)))
            (_ bv1 1)
            g_l))
)
